NAME : traveling-santa-2018-prime-paths.30358.tour
COMMENT : Length = 30358
COMMENT : Found by LKH [Keld Helsgaun] Sun Jun 12 20:00:41 2022
TYPE : TOUR
DIMENSION : 100
TOUR_SECTION
1
47
16
22
4
12
48
86
59
73
60
98
35
29
61
30
20
80
94
62
26
15
43
92
31
25
34
7
81
11
38
39
40
36
51
87
79
3
21
63
68
8
32
6
85
23
5
83
49
74
97
88
77
90
75
91
28
89
2
53
42
65
67
84
14
10
71
41
54
52
33
56
13
37
78
95
82
17
100
72
18
45
64
50
46
66
24
69
57
19
44
76
9
96
70
93
55
27
99
58
-1
EOF
